% Auto-generated by scripts/generate_dzn.py
% problem_type   = polyominoes
% instance       = polyominoes_69
% source_json    = instances_json/0_low_blowup/polyominoes_69.json
% blowup         = 0.6805251641137856
% representation = DFA

mode = 0;

size = 8;
tiles = 2;
n_expressions = 2;
Q = 250;
S = 3;
q0 = [1, 1];
F = [{243}, {14}];
d_dfa = array3d(1..2, 1..250, 1..3, [
  % k = 1
    2, 1, 1,
    3, 4, 4,
    5, 250, 250,
    6, 7, 7,
    8, 250, 250,
    9, 250, 250,
    250, 10, 10,
    11, 250, 250,
    12, 250, 250,
    250, 13, 13,
    14, 250, 250,
    15, 250, 250,
    250, 16, 16,
    17, 250, 250,
    18, 250, 250,
    250, 19, 19,
    20, 21, 21,
    22, 250, 250,
    250, 23, 23,
    250, 24, 24,
    250, 25, 25,
    26, 250, 250,
    250, 27, 27,
    28, 29, 29,
    30, 250, 250,
    31, 250, 250,
    6, 250, 250,
    32, 250, 250,
    33, 250, 250,
    34, 250, 250,
    250, 35, 35,
    36, 250, 250,
    37, 250, 250,
    38, 250, 250,
    39, 250, 250,
    40, 250, 250,
    41, 250, 250,
    42, 250, 250,
    43, 250, 250,
    44, 250, 250,
    45, 250, 250,
    46, 250, 250,
    47, 250, 250,
    48, 250, 250,
    49, 250, 250,
    50, 250, 250,
    51, 250, 250,
    52, 250, 250,
    53, 250, 250,
    54, 250, 250,
    55, 250, 250,
    56, 57, 57,
    58, 250, 250,
    250, 59, 59,
    60, 250, 250,
    250, 61, 61,
    250, 62, 62,
    250, 57, 57,
    250, 63, 63,
    64, 250, 250,
    65, 250, 250,
    66, 250, 250,
    67, 250, 250,
    68, 250, 250,
    69, 250, 250,
    70, 250, 250,
    71, 250, 250,
    250, 72, 72,
    73, 250, 250,
    74, 250, 250,
    75, 250, 250,
    76, 250, 250,
    77, 250, 250,
    78, 250, 250,
    79, 250, 250,
    80, 250, 250,
    81, 250, 250,
    82, 250, 250,
    83, 250, 250,
    84, 250, 250,
    85, 250, 250,
    86, 250, 250,
    87, 250, 250,
    88, 250, 250,
    89, 250, 250,
    90, 250, 250,
    91, 250, 250,
    92, 250, 250,
    93, 250, 250,
    250, 94, 94,
    250, 95, 95,
    96, 250, 250,
    250, 97, 97,
    250, 98, 98,
    250, 99, 99,
    100, 250, 250,
    101, 250, 250,
    102, 250, 250,
    103, 250, 250,
    104, 250, 250,
    105, 250, 250,
    106, 250, 250,
    107, 250, 250,
    250, 108, 108,
    109, 250, 250,
    110, 250, 250,
    111, 250, 250,
    112, 250, 250,
    113, 250, 250,
    114, 250, 250,
    115, 250, 250,
    116, 250, 250,
    117, 250, 250,
    118, 250, 250,
    119, 250, 250,
    120, 250, 250,
    121, 250, 250,
    122, 250, 250,
    123, 250, 250,
    124, 250, 250,
    125, 250, 250,
    126, 250, 250,
    127, 250, 250,
    128, 250, 250,
    129, 250, 250,
    250, 130, 130,
    250, 131, 131,
    132, 250, 250,
    250, 133, 133,
    250, 134, 134,
    250, 135, 135,
    136, 250, 250,
    137, 250, 250,
    138, 250, 250,
    139, 250, 250,
    140, 250, 250,
    141, 250, 250,
    142, 250, 250,
    143, 250, 250,
    250, 144, 144,
    145, 250, 250,
    146, 250, 250,
    147, 250, 250,
    148, 250, 250,
    149, 250, 250,
    150, 250, 250,
    151, 250, 250,
    152, 250, 250,
    153, 250, 250,
    154, 250, 250,
    155, 250, 250,
    156, 250, 250,
    157, 250, 250,
    158, 250, 250,
    159, 250, 250,
    160, 250, 250,
    161, 250, 250,
    162, 250, 250,
    163, 250, 250,
    164, 250, 250,
    165, 250, 250,
    250, 166, 166,
    250, 167, 167,
    168, 250, 250,
    250, 169, 169,
    250, 170, 170,
    250, 171, 171,
    172, 250, 250,
    173, 250, 250,
    174, 250, 250,
    175, 250, 250,
    176, 250, 250,
    177, 250, 250,
    178, 250, 250,
    179, 250, 250,
    250, 180, 180,
    181, 250, 250,
    182, 250, 250,
    183, 250, 250,
    184, 250, 250,
    185, 250, 250,
    186, 250, 250,
    187, 250, 250,
    188, 250, 250,
    189, 250, 250,
    190, 250, 250,
    191, 250, 250,
    192, 250, 250,
    193, 250, 250,
    194, 250, 250,
    195, 250, 250,
    196, 250, 250,
    197, 250, 250,
    198, 250, 250,
    199, 250, 250,
    200, 250, 250,
    201, 250, 250,
    250, 202, 202,
    250, 203, 203,
    204, 250, 250,
    250, 205, 205,
    250, 206, 206,
    250, 207, 207,
    208, 250, 250,
    209, 250, 250,
    210, 250, 250,
    211, 250, 250,
    212, 250, 250,
    213, 250, 250,
    214, 250, 250,
    215, 250, 250,
    250, 216, 216,
    217, 250, 250,
    218, 250, 250,
    219, 250, 250,
    220, 250, 250,
    221, 250, 250,
    222, 250, 250,
    223, 250, 250,
    224, 250, 250,
    225, 250, 250,
    226, 250, 250,
    227, 250, 250,
    228, 250, 250,
    229, 250, 250,
    230, 250, 250,
    231, 250, 250,
    232, 250, 250,
    233, 250, 250,
    234, 250, 250,
    235, 250, 250,
    236, 250, 250,
    237, 250, 250,
    250, 238, 238,
    250, 239, 239,
    240, 250, 250,
    250, 241, 241,
    250, 220, 220,
    220, 216, 216,
    242, 250, 250,
    243, 244, 244,
    243, 250, 250,
    250, 243, 243,
    250, 245, 245,
    250, 246, 246,
    250, 247, 247,
    250, 248, 248,
    250, 249, 249,
    250, 242, 242,
    250, 250, 250,

  % k = 2
    1, 2, 1,
    3, 4, 3,
    5, 61, 5,
    61, 6, 61,
    7, 61, 7,
    61, 8, 61,
    9, 61, 9,
    61, 10, 61,
    11, 61, 11,
    61, 12, 61,
    13, 61, 13,
    61, 14, 61,
    15, 61, 15,
    14, 61, 14,
    16, 61, 16,
    61, 17, 61,
    18, 61, 18,
    19, 61, 19,
    20, 61, 20,
    21, 61, 21,
    22, 61, 22,
    23, 61, 23,
    24, 61, 24,
    25, 61, 25,
    61, 26, 61,
    27, 61, 27,
    28, 61, 28,
    29, 61, 29,
    30, 61, 30,
    31, 61, 31,
    32, 61, 32,
    33, 61, 33,
    34, 61, 34,
    61, 35, 61,
    36, 61, 36,
    37, 61, 37,
    38, 61, 38,
    39, 61, 39,
    40, 61, 40,
    41, 61, 41,
    42, 61, 42,
    43, 61, 43,
    61, 44, 61,
    45, 61, 45,
    46, 61, 46,
    47, 61, 47,
    48, 61, 48,
    49, 61, 49,
    50, 61, 50,
    51, 61, 51,
    52, 61, 52,
    61, 53, 61,
    54, 61, 54,
    55, 61, 55,
    56, 61, 56,
    57, 61, 57,
    58, 61, 58,
    59, 61, 59,
    60, 61, 60,
    12, 61, 12,
    61, 61, 61,
    0, 0, 0,
    0, 0, 0,
    0, 0, 0,
    0, 0, 0,
    0, 0, 0,
    0, 0, 0,
    0, 0, 0,
    0, 0, 0,
    0, 0, 0,
    0, 0, 0,
    0, 0, 0,
    0, 0, 0,
    0, 0, 0,
    0, 0, 0,
    0, 0, 0,
    0, 0, 0,
    0, 0, 0,
    0, 0, 0,
    0, 0, 0,
    0, 0, 0,
    0, 0, 0,
    0, 0, 0,
    0, 0, 0,
    0, 0, 0,
    0, 0, 0,
    0, 0, 0,
    0, 0, 0,
    0, 0, 0,
    0, 0, 0,
    0, 0, 0,
    0, 0, 0,
    0, 0, 0,
    0, 0, 0,
    0, 0, 0,
    0, 0, 0,
    0, 0, 0,
    0, 0, 0,
    0, 0, 0,
    0, 0, 0,
    0, 0, 0,
    0, 0, 0,
    0, 0, 0,
    0, 0, 0,
    0, 0, 0,
    0, 0, 0,
    0, 0, 0,
    0, 0, 0,
    0, 0, 0,
    0, 0, 0,
    0, 0, 0,
    0, 0, 0,
    0, 0, 0,
    0, 0, 0,
    0, 0, 0,
    0, 0, 0,
    0, 0, 0,
    0, 0, 0,
    0, 0, 0,
    0, 0, 0,
    0, 0, 0,
    0, 0, 0,
    0, 0, 0,
    0, 0, 0,
    0, 0, 0,
    0, 0, 0,
    0, 0, 0,
    0, 0, 0,
    0, 0, 0,
    0, 0, 0,
    0, 0, 0,
    0, 0, 0,
    0, 0, 0,
    0, 0, 0,
    0, 0, 0,
    0, 0, 0,
    0, 0, 0,
    0, 0, 0,
    0, 0, 0,
    0, 0, 0,
    0, 0, 0,
    0, 0, 0,
    0, 0, 0,
    0, 0, 0,
    0, 0, 0,
    0, 0, 0,
    0, 0, 0,
    0, 0, 0,
    0, 0, 0,
    0, 0, 0,
    0, 0, 0,
    0, 0, 0,
    0, 0, 0,
    0, 0, 0,
    0, 0, 0,
    0, 0, 0,
    0, 0, 0,
    0, 0, 0,
    0, 0, 0,
    0, 0, 0,
    0, 0, 0,
    0, 0, 0,
    0, 0, 0,
    0, 0, 0,
    0, 0, 0,
    0, 0, 0,
    0, 0, 0,
    0, 0, 0,
    0, 0, 0,
    0, 0, 0,
    0, 0, 0,
    0, 0, 0,
    0, 0, 0,
    0, 0, 0,
    0, 0, 0,
    0, 0, 0,
    0, 0, 0,
    0, 0, 0,
    0, 0, 0,
    0, 0, 0,
    0, 0, 0,
    0, 0, 0,
    0, 0, 0,
    0, 0, 0,
    0, 0, 0,
    0, 0, 0,
    0, 0, 0,
    0, 0, 0,
    0, 0, 0,
    0, 0, 0,
    0, 0, 0,
    0, 0, 0,
    0, 0, 0,
    0, 0, 0,
    0, 0, 0,
    0, 0, 0,
    0, 0, 0,
    0, 0, 0,
    0, 0, 0,
    0, 0, 0,
    0, 0, 0,
    0, 0, 0,
    0, 0, 0,
    0, 0, 0,
    0, 0, 0,
    0, 0, 0,
    0, 0, 0,
    0, 0, 0,
    0, 0, 0,
    0, 0, 0,
    0, 0, 0,
    0, 0, 0,
    0, 0, 0,
    0, 0, 0,
    0, 0, 0,
    0, 0, 0,
    0, 0, 0,
    0, 0, 0,
    0, 0, 0,
    0, 0, 0,
    0, 0, 0,
    0, 0, 0,
    0, 0, 0,
    0, 0, 0,
    0, 0, 0,
    0, 0, 0,
    0, 0, 0,
    0, 0, 0,
    0, 0, 0,
    0, 0, 0,
    0, 0, 0,
    0, 0, 0,
    0, 0, 0,
    0, 0, 0,
    0, 0, 0,
    0, 0, 0,
    0, 0, 0,
    0, 0, 0,
    0, 0, 0,
    0, 0, 0,
    0, 0, 0,
    0, 0, 0,
    0, 0, 0,
    0, 0, 0,
    0, 0, 0,
    0, 0, 0,
    0, 0, 0,
    0, 0, 0,
    0, 0, 0,
    0, 0, 0
]);
d_nfa = array3d(1..2, 1..250, 1..3, [
  % k = 1
    {}, {}, {},
    {}, {}, {},
    {}, {}, {},
    {}, {}, {},
    {}, {}, {},
    {}, {}, {},
    {}, {}, {},
    {}, {}, {},
    {}, {}, {},
    {}, {}, {},
    {}, {}, {},
    {}, {}, {},
    {}, {}, {},
    {}, {}, {},
    {}, {}, {},
    {}, {}, {},
    {}, {}, {},
    {}, {}, {},
    {}, {}, {},
    {}, {}, {},
    {}, {}, {},
    {}, {}, {},
    {}, {}, {},
    {}, {}, {},
    {}, {}, {},
    {}, {}, {},
    {}, {}, {},
    {}, {}, {},
    {}, {}, {},
    {}, {}, {},
    {}, {}, {},
    {}, {}, {},
    {}, {}, {},
    {}, {}, {},
    {}, {}, {},
    {}, {}, {},
    {}, {}, {},
    {}, {}, {},
    {}, {}, {},
    {}, {}, {},
    {}, {}, {},
    {}, {}, {},
    {}, {}, {},
    {}, {}, {},
    {}, {}, {},
    {}, {}, {},
    {}, {}, {},
    {}, {}, {},
    {}, {}, {},
    {}, {}, {},
    {}, {}, {},
    {}, {}, {},
    {}, {}, {},
    {}, {}, {},
    {}, {}, {},
    {}, {}, {},
    {}, {}, {},
    {}, {}, {},
    {}, {}, {},
    {}, {}, {},
    {}, {}, {},
    {}, {}, {},
    {}, {}, {},
    {}, {}, {},
    {}, {}, {},
    {}, {}, {},
    {}, {}, {},
    {}, {}, {},
    {}, {}, {},
    {}, {}, {},
    {}, {}, {},
    {}, {}, {},
    {}, {}, {},
    {}, {}, {},
    {}, {}, {},
    {}, {}, {},
    {}, {}, {},
    {}, {}, {},
    {}, {}, {},
    {}, {}, {},
    {}, {}, {},
    {}, {}, {},
    {}, {}, {},
    {}, {}, {},
    {}, {}, {},
    {}, {}, {},
    {}, {}, {},
    {}, {}, {},
    {}, {}, {},
    {}, {}, {},
    {}, {}, {},
    {}, {}, {},
    {}, {}, {},
    {}, {}, {},
    {}, {}, {},
    {}, {}, {},
    {}, {}, {},
    {}, {}, {},
    {}, {}, {},
    {}, {}, {},
    {}, {}, {},
    {}, {}, {},
    {}, {}, {},
    {}, {}, {},
    {}, {}, {},
    {}, {}, {},
    {}, {}, {},
    {}, {}, {},
    {}, {}, {},
    {}, {}, {},
    {}, {}, {},
    {}, {}, {},
    {}, {}, {},
    {}, {}, {},
    {}, {}, {},
    {}, {}, {},
    {}, {}, {},
    {}, {}, {},
    {}, {}, {},
    {}, {}, {},
    {}, {}, {},
    {}, {}, {},
    {}, {}, {},
    {}, {}, {},
    {}, {}, {},
    {}, {}, {},
    {}, {}, {},
    {}, {}, {},
    {}, {}, {},
    {}, {}, {},
    {}, {}, {},
    {}, {}, {},
    {}, {}, {},
    {}, {}, {},
    {}, {}, {},
    {}, {}, {},
    {}, {}, {},
    {}, {}, {},
    {}, {}, {},
    {}, {}, {},
    {}, {}, {},
    {}, {}, {},
    {}, {}, {},
    {}, {}, {},
    {}, {}, {},
    {}, {}, {},
    {}, {}, {},
    {}, {}, {},
    {}, {}, {},
    {}, {}, {},
    {}, {}, {},
    {}, {}, {},
    {}, {}, {},
    {}, {}, {},
    {}, {}, {},
    {}, {}, {},
    {}, {}, {},
    {}, {}, {},
    {}, {}, {},
    {}, {}, {},
    {}, {}, {},
    {}, {}, {},
    {}, {}, {},
    {}, {}, {},
    {}, {}, {},
    {}, {}, {},
    {}, {}, {},
    {}, {}, {},
    {}, {}, {},
    {}, {}, {},
    {}, {}, {},
    {}, {}, {},
    {}, {}, {},
    {}, {}, {},
    {}, {}, {},
    {}, {}, {},
    {}, {}, {},
    {}, {}, {},
    {}, {}, {},
    {}, {}, {},
    {}, {}, {},
    {}, {}, {},
    {}, {}, {},
    {}, {}, {},
    {}, {}, {},
    {}, {}, {},
    {}, {}, {},
    {}, {}, {},
    {}, {}, {},
    {}, {}, {},
    {}, {}, {},
    {}, {}, {},
    {}, {}, {},
    {}, {}, {},
    {}, {}, {},
    {}, {}, {},
    {}, {}, {},
    {}, {}, {},
    {}, {}, {},
    {}, {}, {},
    {}, {}, {},
    {}, {}, {},
    {}, {}, {},
    {}, {}, {},
    {}, {}, {},
    {}, {}, {},
    {}, {}, {},
    {}, {}, {},
    {}, {}, {},
    {}, {}, {},
    {}, {}, {},
    {}, {}, {},
    {}, {}, {},
    {}, {}, {},
    {}, {}, {},
    {}, {}, {},
    {}, {}, {},
    {}, {}, {},
    {}, {}, {},
    {}, {}, {},
    {}, {}, {},
    {}, {}, {},
    {}, {}, {},
    {}, {}, {},
    {}, {}, {},
    {}, {}, {},
    {}, {}, {},
    {}, {}, {},
    {}, {}, {},
    {}, {}, {},
    {}, {}, {},
    {}, {}, {},
    {}, {}, {},
    {}, {}, {},
    {}, {}, {},
    {}, {}, {},
    {}, {}, {},
    {}, {}, {},
    {}, {}, {},
    {}, {}, {},
    {}, {}, {},
    {}, {}, {},
    {}, {}, {},
    {}, {}, {},
    {}, {}, {},
    {}, {}, {},
    {}, {}, {},
    {}, {}, {},
    {}, {}, {},
    {}, {}, {},

  % k = 2
    {}, {}, {},
    {}, {}, {},
    {}, {}, {},
    {}, {}, {},
    {}, {}, {},
    {}, {}, {},
    {}, {}, {},
    {}, {}, {},
    {}, {}, {},
    {}, {}, {},
    {}, {}, {},
    {}, {}, {},
    {}, {}, {},
    {}, {}, {},
    {}, {}, {},
    {}, {}, {},
    {}, {}, {},
    {}, {}, {},
    {}, {}, {},
    {}, {}, {},
    {}, {}, {},
    {}, {}, {},
    {}, {}, {},
    {}, {}, {},
    {}, {}, {},
    {}, {}, {},
    {}, {}, {},
    {}, {}, {},
    {}, {}, {},
    {}, {}, {},
    {}, {}, {},
    {}, {}, {},
    {}, {}, {},
    {}, {}, {},
    {}, {}, {},
    {}, {}, {},
    {}, {}, {},
    {}, {}, {},
    {}, {}, {},
    {}, {}, {},
    {}, {}, {},
    {}, {}, {},
    {}, {}, {},
    {}, {}, {},
    {}, {}, {},
    {}, {}, {},
    {}, {}, {},
    {}, {}, {},
    {}, {}, {},
    {}, {}, {},
    {}, {}, {},
    {}, {}, {},
    {}, {}, {},
    {}, {}, {},
    {}, {}, {},
    {}, {}, {},
    {}, {}, {},
    {}, {}, {},
    {}, {}, {},
    {}, {}, {},
    {}, {}, {},
    {}, {}, {},
    {}, {}, {},
    {}, {}, {},
    {}, {}, {},
    {}, {}, {},
    {}, {}, {},
    {}, {}, {},
    {}, {}, {},
    {}, {}, {},
    {}, {}, {},
    {}, {}, {},
    {}, {}, {},
    {}, {}, {},
    {}, {}, {},
    {}, {}, {},
    {}, {}, {},
    {}, {}, {},
    {}, {}, {},
    {}, {}, {},
    {}, {}, {},
    {}, {}, {},
    {}, {}, {},
    {}, {}, {},
    {}, {}, {},
    {}, {}, {},
    {}, {}, {},
    {}, {}, {},
    {}, {}, {},
    {}, {}, {},
    {}, {}, {},
    {}, {}, {},
    {}, {}, {},
    {}, {}, {},
    {}, {}, {},
    {}, {}, {},
    {}, {}, {},
    {}, {}, {},
    {}, {}, {},
    {}, {}, {},
    {}, {}, {},
    {}, {}, {},
    {}, {}, {},
    {}, {}, {},
    {}, {}, {},
    {}, {}, {},
    {}, {}, {},
    {}, {}, {},
    {}, {}, {},
    {}, {}, {},
    {}, {}, {},
    {}, {}, {},
    {}, {}, {},
    {}, {}, {},
    {}, {}, {},
    {}, {}, {},
    {}, {}, {},
    {}, {}, {},
    {}, {}, {},
    {}, {}, {},
    {}, {}, {},
    {}, {}, {},
    {}, {}, {},
    {}, {}, {},
    {}, {}, {},
    {}, {}, {},
    {}, {}, {},
    {}, {}, {},
    {}, {}, {},
    {}, {}, {},
    {}, {}, {},
    {}, {}, {},
    {}, {}, {},
    {}, {}, {},
    {}, {}, {},
    {}, {}, {},
    {}, {}, {},
    {}, {}, {},
    {}, {}, {},
    {}, {}, {},
    {}, {}, {},
    {}, {}, {},
    {}, {}, {},
    {}, {}, {},
    {}, {}, {},
    {}, {}, {},
    {}, {}, {},
    {}, {}, {},
    {}, {}, {},
    {}, {}, {},
    {}, {}, {},
    {}, {}, {},
    {}, {}, {},
    {}, {}, {},
    {}, {}, {},
    {}, {}, {},
    {}, {}, {},
    {}, {}, {},
    {}, {}, {},
    {}, {}, {},
    {}, {}, {},
    {}, {}, {},
    {}, {}, {},
    {}, {}, {},
    {}, {}, {},
    {}, {}, {},
    {}, {}, {},
    {}, {}, {},
    {}, {}, {},
    {}, {}, {},
    {}, {}, {},
    {}, {}, {},
    {}, {}, {},
    {}, {}, {},
    {}, {}, {},
    {}, {}, {},
    {}, {}, {},
    {}, {}, {},
    {}, {}, {},
    {}, {}, {},
    {}, {}, {},
    {}, {}, {},
    {}, {}, {},
    {}, {}, {},
    {}, {}, {},
    {}, {}, {},
    {}, {}, {},
    {}, {}, {},
    {}, {}, {},
    {}, {}, {},
    {}, {}, {},
    {}, {}, {},
    {}, {}, {},
    {}, {}, {},
    {}, {}, {},
    {}, {}, {},
    {}, {}, {},
    {}, {}, {},
    {}, {}, {},
    {}, {}, {},
    {}, {}, {},
    {}, {}, {},
    {}, {}, {},
    {}, {}, {},
    {}, {}, {},
    {}, {}, {},
    {}, {}, {},
    {}, {}, {},
    {}, {}, {},
    {}, {}, {},
    {}, {}, {},
    {}, {}, {},
    {}, {}, {},
    {}, {}, {},
    {}, {}, {},
    {}, {}, {},
    {}, {}, {},
    {}, {}, {},
    {}, {}, {},
    {}, {}, {},
    {}, {}, {},
    {}, {}, {},
    {}, {}, {},
    {}, {}, {},
    {}, {}, {},
    {}, {}, {},
    {}, {}, {},
    {}, {}, {},
    {}, {}, {},
    {}, {}, {},
    {}, {}, {},
    {}, {}, {},
    {}, {}, {},
    {}, {}, {},
    {}, {}, {},
    {}, {}, {},
    {}, {}, {},
    {}, {}, {},
    {}, {}, {},
    {}, {}, {},
    {}, {}, {},
    {}, {}, {},
    {}, {}, {},
    {}, {}, {},
    {}, {}, {},
    {}, {}, {},
    {}, {}, {},
    {}, {}, {},
    {}, {}, {},
    {}, {}, {}
]);
